g3 3 1 0	# problem prolog
 20 22 1 0 0	# vars, constraints, objectives, ranges, eqns
 2 1	# nonlinear constraints, objectives
 0 0	# network constraints: nonlinear, linear
 6 6 6	# nonlinear vars in constraints, objectives, both
 0 0 0 1	# linear network variables; functions; arith, flags
 0 0 0 0 0	# discrete variables: binary, integer, nonlinear (b,c,o)
 120 8	# nonzeros in Jacobian, gradients
 0 0	# max name lengths: constraints, variables
 0 0 0 0 0	# common exprs: b,c,o,c1,o1
b
2 0.2
2 0.2
2 0
2 0
2 0
2 0
2 0.2
2 0
2 0
2 0
2 0
2 0
2 0
2 0
2 0
2 0
2 0
2 0
2 0
2 0
x11
0 0.5942
1 1.31077
2 352
3 430
4 222
5 292
6 1.6167
7 0.130670360422406
8 0.130670360422406
18 500.14934
19 638.25084
r
1 0
1 0
1 0
1 0
1 0
1 3712
1 5000
1 352
1 430
1 222
1 292
1 0
1 0
1 0
1 0
1 0
1 0
1 0
1 0
1 0
1 0
1 0
C0
o0
o2
v2
v0
o2
v4
v1
C1
o0
o2
v3
v0
o2
v5
v1
C2
n0
C3
n0
C4
n0
C5
n0
C6
n0
C7
n0
C8
n0
C9
n0
C10
n0
C11
n0
C12
n0
C13
n0
C14
n0
C15
n0
C16
n0
C17
n0
C18
n0
C19
n0
C20
n0
C21
n0
O0 0
o16
o54
4
o2
v2
v0
o2
v3
v0
o2
v4
v1
o2
v5
v1
k19
12
27
30
33
36
39
48
59
70
75
80
85
89
93
97
102
107
112
116
J0 5
0 0
1 0
2 0
4 0
18 -1
J1 5
0 0
1 0
3 0
5 0
19 -1
J2 8
2 1
3 1
9 -0.94
10 -0.94
11 -0.94
15 0.244
16 0.244
17 0.244
J3 9
9 0.064
10 0.064
11 0.064
12 -0.58
13 -0.58
14 -0.58
15 0.172
16 0.172
17 0.172
J4 11
4 1
5 1
9 0.048
10 0.048
11 0.048
12 0.247
13 0.247
14 0.247
15 -0.916
16 -0.916
17 -0.916
J5 9
9 1
10 1.2
11 0.8
12 2
13 1.8
14 2.4
15 3
16 2.7
17 3.2
J6 9
9 2
10 1.8
11 2.2
12 3
13 3.5
14 2.3
15 3
16 3.2
17 2.7
J7 4
0 356.474947137148
1 53.7083537310174
2 1
18 -0.564264890180399
J8 4
0 339.983422262764
1 43.5418249774113
3 1
19 -0.405939876920766
J9 4
0 106.946746119538
1 145.018955433089
4 1
18 -0.507117039797071
J10 4
0 173.929713444361
1 203.031384299627
5 1
19 -0.578889145413521
J11 3
7 -3340.8
8 -500
18 1
J12 3
7 -371.2
8 -4500
19 1
J13 5
0 0.94
1 -0.048
6 -0.064
7 -1
8 -2
J14 5
0 0.94
1 -0.048
6 -0.064
7 -1.2
8 -1.8
J15 5
0 0.94
1 -0.048
6 -0.064
7 -0.8
8 -2.2
J16 4
1 -0.247
6 0.58
7 -2
8 -3
J17 4
1 -0.247
6 0.58
7 -1.8
8 -3.5
J18 4
1 -0.247
6 0.58
7 -2.4
8 -2.3
J19 5
0 -0.244
1 0.916
6 -0.172
7 -3
8 -3
J20 5
0 -0.244
1 0.916
6 -0.172
7 -2.7
8 -3.2
J21 5
0 -0.244
1 0.916
6 -0.172
7 -3.2
8 -2.7
G0 8
0 0
1 0
2 0
3 0
4 0
5 0
7 3712
8 5000
